p edge 20 100
e 1 4
e 1 7
e 1 14
e 1 16
e 1 18
e 2 3
e 2 7
e 2 10
e 2 13
e 2 16
e 3 4
e 3 7
e 3 8
e 3 11
e 3 20
e 4 1
e 4 7
e 4 12
e 4 13
e 4 17
e 5 3
e 5 8
e 5 9
e 5 10
e 5 11
e 6 3
e 6 4
e 6 8
e 6 10
e 6 16
e 7 3
e 7 3
e 7 8
e 7 10
e 7 19
e 8 3
e 8 10
e 8 12
e 8 14
e 8 17
e 9 2
e 9 5
e 9 14
e 9 18
e 9 20
e 10 5
e 10 11
e 10 14
e 10 16
e 10 19
e 11 1
e 11 7
e 11 12
e 11 14
e 11 17
e 12 2
e 12 3
e 12 6
e 12 11
e 12 17
e 13 5
e 13 6
e 13 6
e 13 8
e 13 17
e 14 5
e 14 7
e 14 10
e 14 16
e 14 18
e 15 3
e 15 4
e 15 5
e 15 6
e 15 8
e 16 8
e 16 9
e 16 11
e 16 17
e 16 19
e 17 4
e 17 5
e 17 9
e 17 12
e 17 15
e 18 1
e 18 9
e 18 13
e 18 17
e 18 20
e 19 7
e 19 7
e 19 13
e 19 15
e 19 20
e 20 8
e 20 11
e 20 15
e 20 16
e 20 19
